SLURM_JOB_ID: 55351045
SLURM_JOB_USER: vsc34888
SLURM_JOB_ACCOUNT: lp_elect_gen_modeling
SLURM_JOB_NAME: 3-bus_by_stages_loop_D_hnb
SLURM_CLUSTER_NAME: genius
SLURM_JOB_PARTITION: batch
SLURM_NNODES: 1
SLURM_NODELIST: r23i13n05
SLURM_JOB_CPUS_PER_NODE: 36
Date: Wed Nov 15 15:52:28 CET 2023
Walltime: 00-01:00:00
========================================================================
Activation OK
Starting runs

 #### Academic research license - for non-commercial use only #### 

3-bus_ByStages_nc1000
/lustre1/scratch/348/vsc34888/JointResearch/05.Models/06.Benchmarking/D.Representative_days_based_on_RES_and_Demand
gurobi
['oSN_Main_DCOPF.py', '--case', '3-bus_ByStages_nc1000']
Namespace(case='3-bus_ByStages_nc1000', dir='/lustre1/scratch/348/vsc34888/JointResearch/05.Models/06.Benchmarking/D.Representative_days_based_on_RES_and_Demand', solver='gurobi')
Namespace(case='3-bus_ByStages_nc1000', dir='/lustre1/scratch/348/vsc34888/JointResearch/05.Models/06.Benchmarking/D.Representative_days_based_on_RES_and_Demand', solver='gurobi')
Reading    input data                 ...  0 s
Setting up input data                 ...  0 s
Generating objective function         ...  6 s
Generating operation & investment     ...  0 s
Generating balance                    ...  5 s
Generating storage operation          ...  0 s
Generating generation commitment      ...  33 s
Generating generation capacity        ...  16 s
Generating network    capacity        ...  50 s
Generating network    constraints     ...  130 s
Econometric analysis  constraints     ...  0 s
Set parameter Username
Set parameter TokenServer to value "SET-S-ME-LM3.luna.kuleuven.be"
Read LP format model from file /tmp/tmp64ip6zq6.pyomo.lp
Reading time = 0.18 seconds
x1: 71076 rows, 31379 columns, 196882 nonzeros
Set parameter QCPDual to value 1
Set parameter LogFile to value "/lustre1/scratch/348/vsc34888/JointResearch/05.Models/06.Benchmarking/D.Representative_days_based_on_RES_and_Demand/3-bus_ByStages_nc1000/openStarNet_3-bus_ByStages_nc1000.log"
Set parameter Method to value 2
Set parameter MIPFocus to value 1
Set parameter Presolve to value 2
Set parameter RINS to value 100
Set parameter MIPGap to value 0.01
Set parameter Threads to value 36
Set parameter TimeLimit to value 604800
Set parameter IterationLimit to value 760000000
Gurobi Optimizer version 9.5.0 build v9.5.0rc5 (linux64)
Thread count: 36 physical cores, 36 logical processors, using up to 36 threads
Optimize a model with 71076 rows, 31379 columns and 196882 nonzeros
Model fingerprint: 0x0f8e71c9
Variable types: 31370 continuous, 9 integer (9 binary)
Coefficient statistics:
  Matrix range     [1e-03, 2e+05]
  Objective range  [1e+00, 1e+00]
  Bounds range     [6e-06, 2e+00]
  RHS range        [6e-06, 1e+00]
Presolve removed 29034 rows and 8680 columns
Presolve time: 0.17s
Presolved: 42042 rows, 22699 columns, 148816 nonzeros
Variable types: 22690 continuous, 9 integer (9 binary)
Found heuristic solution: objective 74.6326361
Root relaxation presolved: 42042 rows, 22699 columns, 148816 nonzeros

Root barrier log...

Ordering time: 0.01s

Barrier statistics:
 Dense cols : 9
 AA' NZ     : 3.724e+05
 Factor NZ  : 6.337e+05 (roughly 30 MB of memory)
 Factor Ops : 1.302e+07 (less than 1 second per iteration)
 Threads    : 36

                  Objective                Residual
Iter       Primal          Dual         Primal    Dual     Compl     Time
   0   3.84293448e+05 -8.61323805e+07  1.54e+01 8.49e+00  1.62e+03     1s
   1   2.80270731e+04 -1.72612740e+06  1.07e+00 5.91e-09  5.41e+01     1s
   2   3.87672536e+03 -5.77119234e+05  4.08e-02 6.09e-09  7.75e+00     1s
   3   1.75993238e+03 -2.23568134e+04  9.23e-04 2.88e-10  2.97e-01     1s
   4   3.23628370e+02 -4.62703126e+03  2.86e-05 5.64e-11  6.08e-02     1s
   5   2.26245413e+02 -2.03173891e+03  1.42e-05 2.31e-11  2.77e-02     1s
   6   1.70524541e+02 -5.69512075e+02  8.14e-06 5.98e-12  9.09e-03     1s
   7   1.09677663e+02 -1.64795467e+02  3.01e-06 2.00e-12  3.37e-03     1s
   8   8.08517722e+01  2.80743135e+01  5.50e-07 2.52e-13  6.48e-04     1s
   9   6.89708985e+01  6.13076639e+01  8.50e-08 4.55e-13  9.41e-05     1s
  10   6.81442164e+01  6.40030481e+01  6.74e-08 5.86e-14  5.09e-05     1s
  11   6.77219207e+01  6.46250167e+01  5.75e-08 2.56e-13  3.80e-05     1s
  12   6.76670162e+01  6.46921591e+01  5.11e-08 3.98e-13  3.65e-05     1s
  13   6.73439375e+01  6.47988608e+01  4.01e-08 8.53e-14  3.13e-05     1s
  14   6.69567612e+01  6.49711712e+01  2.68e-08 4.55e-13  2.44e-05     1s
  15   6.64180684e+01  6.51812165e+01  1.40e-08 1.99e-13  1.52e-05     1s
  16   6.63963098e+01  6.52873959e+01  1.18e-08 1.99e-13  1.36e-05     1s
  17   6.63162797e+01  6.53937972e+01  9.13e-09 2.84e-13  1.13e-05     1s
  18   6.62833474e+01  6.53971068e+01  8.20e-09 5.68e-14  1.09e-05     1s
  19   6.61899606e+01  6.55540939e+01  6.10e-09 5.68e-14  7.81e-06     1s
  20   6.61326227e+01  6.55990016e+01  3.74e-09 5.68e-14  6.55e-06     1s
  21   6.60994729e+01  6.56598918e+01  2.45e-09 1.42e-13  5.40e-06     1s
  22   6.60696878e+01  6.57555425e+01  1.53e-09 1.28e-13  3.86e-06     1s
  23   6.60593905e+01  6.57575518e+01  1.26e-09 5.68e-14  3.71e-06     1s
  24   6.60424679e+01  6.58717229e+01  8.41e-10 1.28e-13  2.10e-06     1s
  25   6.60263523e+01  6.59205442e+01  4.49e-10 6.39e-14  1.30e-06     1s
  26   6.60243930e+01  6.59216737e+01  4.08e-10 5.68e-14  1.26e-06     1s
  27   6.60142251e+01  6.59466205e+01  2.38e-10 5.68e-14  8.30e-07     1s
  28   6.60110628e+01  6.59949347e+01  1.63e-10 7.11e-14  1.98e-07     1s
  29   6.60072351e+01  6.60025730e+01  4.87e-10 4.26e-13  5.72e-08     1s
  30   6.60053539e+01  6.60034390e+01  8.40e-10 8.53e-14  2.35e-08     1s
  31   6.60040121e+01  6.60035210e+01  1.89e-09 8.88e-14  6.03e-09     1s
  32   6.60035970e+01  6.60035970e+01  2.55e-10 8.53e-14  2.35e-13     1s

Barrier solved model in 32 iterations and 1.15 seconds (0.97 work units)
Optimal objective 6.60035970e+01


Root relaxation: objective 6.600360e+01, 4010 iterations, 0.88 seconds (0.78 work units)

    Nodes    |    Current Node    |     Objective Bounds      |     Work
 Expl Unexpl |  Obj  Depth IntInf | Incumbent    BestBd   Gap | It/Node Time

     0     0   66.00360    0    3   74.63264   66.00360  11.6%     -    1s
H    0     0                      66.2065269   66.00360  0.31%     -    1s

Explored 1 nodes (4010 simplex iterations) in 1.61 seconds (1.24 work units)
Thread count was 36 (of 36 available processors)

Solution count 2: 66.2065 74.6326 

Optimal solution found (tolerance 1.00e-02)
Best objective 6.620652693577e+01, best bound 6.600359700409e+01, gap 0.3065%
Termination condition:  optimal
# ==========================================================
# = Solver Results                                         =
# ==========================================================
# ----------------------------------------------------------
#   Problem Information
# ----------------------------------------------------------
Problem: 
- Name: x1
  Lower bound: 66.00359700409263
  Upper bound: 66.20652693576668
  Number of objectives: 1
  Number of constraints: 71076
  Number of variables: 31379
  Number of binary variables: 9
  Number of integer variables: 9
  Number of continuous variables: 31370
  Number of nonzeros: 196882
  Sense: minimize
# ----------------------------------------------------------
#   Solver Information
# ----------------------------------------------------------
Solver: 
- Status: ok
  Return code: 0
  Message: Model was solved to optimality (subject to tolerances), and an optimal solution is available.
  Termination condition: optimal
  Termination message: Model was solved to optimality (subject to tolerances), and an optimal solution is available.
  Wall time: 1.613563060760498
  Error rc: 0
  Time: 2.269887924194336
# ----------------------------------------------------------
#   Solution Information
# ----------------------------------------------------------
Solution: 
- number of solutions: 0
  number of solutions displayed: 0
# ============================================================================= #
# ============================================================================= #
fixing: vNetworkInvest[2030,Node_2,Node_3,cac1]
fixing: vNetworkInvest[2030,Node_1,Node_2,cac2]
fixing: vNetworkInvest[2030,Node_1,Node_2,cac3]
fixing: vNetworkInvest[2030,Node_2,Node_3,cac3]
fixing: vNetworkInvest[2030,Node_1,Node_3,cac2]
fixing: vNetworkInvest[2030,Node_1,Node_3,cac1]
fixing: vNetworkInvest[2030,Node_1,Node_3,cac3]
fixing: vNetworkInvest[2030,Node_2,Node_3,cac2]
fixing: vNetworkInvest[2030,Node_1,Node_2,cac1]
Number of fixed variables:  9
# ============================================================================= #
# ============================================================================= #
WARNING: Implicitly replacing the Component attribute dual (type=<class
'pyomo.core.base.suffix.Suffix'>) on block 'openStarNet - Open Version of the
StartNetLite Model (Long Term Transmission Expansion Planning) - Version 1.0.0
- January 16, 2023' with a new Component (type=<class
'pyomo.core.base.suffix.Suffix'>). This is usually indicative of a modelling
error. To avoid this warning, use block.del_component() and
block.add_component().
WARNING: Implicitly replacing the Component attribute rc (type=<class
'pyomo.core.base.suffix.Suffix'>) on block 'openStarNet - Open Version of the
StartNetLite Model (Long Term Transmission Expansion Planning) - Version 1.0.0
- January 16, 2023' with a new Component (type=<class
'pyomo.core.base.suffix.Suffix'>). This is usually indicative of a modelling
error. To avoid this warning, use block.del_component() and
block.add_component().
# ==========================================================
# = Solver Results                                         =
# ==========================================================
# ----------------------------------------------------------
#   Problem Information
# ----------------------------------------------------------
Problem: 
- Name: x1
  Lower bound: 66.20652693576663
  Upper bound: 66.20652693576663
  Number of objectives: 1
  Number of constraints: 71076
  Number of variables: 31370
  Number of binary variables: 0
  Number of integer variables: 0
  Number of continuous variables: 31370
  Number of nonzeros: 160837
  Sense: minimize
# ----------------------------------------------------------
#   Solver Information
# ----------------------------------------------------------
Solver: 
- Status: ok
  Return code: 0
  Message: Model was solved to optimality (subject to tolerances), and an optimal solution is available.
  Termination condition: optimal
  Termination message: Model was solved to optimality (subject to tolerances), and an optimal solution is available.
  Wall time: 0.1456749439239502
  Error rc: 0
  Time: 1.040783405303955
# ----------------------------------------------------------
#   Solution Information
# ----------------------------------------------------------
Solution: 
- number of solutions: 0
  number of solutions displayed: 0
Solving                               ...  178 s
Objective function value                   66.21 M€
Objective function value                   66.20652693576663
Writing         cost summary results  ...  0 s
Writing           investment results  ...  0 s
Writing       energy balance results  ...  0 s
Writing    network operation results  ...  0 s
Writing generation operation results  ...  0 s
Writing        ESS operation results  ...  0 s
Writing             economic results  ...  3 s

 #### Academic research license - for non-commercial use only #### 

Elapsed time: 424 seconds
slurmstepd: error: *** JOB 55351045 ON r23i13n05 CANCELLED AT 2023-11-15T16:52:48 DUE TO TIME LIMIT ***
